# Data source: Swiss Energyscope
# Data source: P.Stadler et al, Contribution of Model Predictive Control in the Integration of Renewable Energy Sources within the Built Environment,2018
# Assumption: interest rate 3%
 
/*---------------------------------------------------------------------------------------------------------------------------------------
Set the efficienc of the SOFC
---------------------------------------------------------------------------------------------------------------------------------------*/
param eff_SOFC_elec := 0.50; # sr: Stadler P.,  Model-based sizing of building energy systems with renewable sources
param eff_SOFC_heat := 0.40; # sr: Stadler P.,  Model-based sizing of building energy systems with renewable sources
#param Lhvhydro := 33.33 #kWh/kg
/*---------------------------------------------------------------------------------------------------------------------------------------
Set flow rate of hydrogen as a function of efficiency
---------------------------------------------------------------------------------------------------------------------------------------*/

let Qheatingsupply['SOFC']:= 100; # kW CHANGER sur internet
let Flowin['Hydrogen','SOFC'] := Qheatingsupply['SOFC'] / eff_SOFC_heat; 
let Flowout['Electricity','SOFC'] := (Qheatingsupply['SOFC'] / eff_SOFC_heat) * eff_SOFC_elec;    

/*---------------------------------------------------------------------------------------------------------------------------------------
Set the maximum scaling factor
---------------------------------------------------------------------------------------------------------------------------------------*/
let  Fmax['SOFC'] := 1000; # Q_demandEPFL/ Q_ref

/*---------------------------------------------------------------------------------------------------------------------------------------
Set the minimum temperature of the SOFC
---------------------------------------------------------------------------------------------------------------------------------------*/
let Tminheating['SOFC'] := 500; #°C

/*---------------------------------------------------------------------------------------------------------------------------------------
Set the cinv2 of the SOFC
---------------------------------------------------------------------------------------------------------------------------------------*/
let cinv1["SOFC"]:= 2112; # CHF/yr but need to be in $/yr sr: Stadler P.,  Model-based sizing of building energy systems with renewable sources
let cinv2["SOFC"]:=285.39; # CHF/(kW.yr) but need to be in $/yr sr: Stadler P.,  Model-based sizing of building energy systems with renewable sources